p cnf 7230 17
-5325 -5599 5796 0
5325 -5796 0
-2022 -5603 -5799 0
-2732 -5601 -5797 0
2022 -5800 0
2732 -5798 0
5801 5802 0
5611 -5802 0
-5611 -5801 0
5799 5800 0
5797 5798 0
5603 -5800 0
5601 -5798 0
-5613 5804 0
5613 -5804 0
5795 5796 0
-5795 -5796 0
